45
1 0 1
2 0 1
3 0 1
3 1 1
3 2 1
4 1 1
4 2 1
5 0 1
5 1 1
5 2 1
5 4 1
6 2 1
7 0 1
7 1 1
7 2 1
7 4 1
7 5 1
8 0 1
8 2 1
8 3 1
8 4 1
9 0 1
9 1 1
9 2 1
9 4 1
9 5 1
9 6 1
10 0 1
10 4 1
10 6 1
10 8 1
11 1 1
11 2 1
11 3 1
11 5 1
11 8 1
11 9 1
12 2 1
12 4 1
12 5 1
12 6 1
12 7 1
12 8 1
13 2 1
13 4 1
13 5 1
13 6 1
13 7 1
14 3 1
14 4 1
14 5 1
14 8 1
14 9 1
14 12 1
15 0 1
15 1 1
15 2 1
15 3 1
15 4 1
15 5 1
15 6 1
15 8 1
15 11 1
15 14 1
16 0 1
16 4 1
16 5 1
16 7 1
16 10 1
16 14 1
16 15 1
17 0 1
17 1 1
17 3 1
17 4 1
17 8 1
17 10 1
17 11 1
17 14 1
17 15 1
17 16 1
18 0 1
18 2 1
18 6 1
18 8 1
18 13 1
18 15 1
18 16 1
18 17 1
19 0 1
19 1 1
19 5 1
19 10 1
19 13 1
19 14 1
19 17 1
19 18 1
20 0 1
20 3 1
20 4 1
20 5 1
20 6 1
20 9 1
20 11 1
20 17 1
20 18 1
21 3 1
21 4 1
21 5 1
21 8 1
21 11 1
21 13 1
21 14 1
21 15 1
21 16 1
21 18 1
21 20 1
22 0 1
22 1 1
22 3 1
22 4 1
22 6 1
22 7 1
22 8 1
22 9 1
22 11 1
22 12 1
22 13 1
22 14 1
22 16 1
22 17 1
22 20 1
23 1 1
23 2 1
23 4 1
23 6 1
23 7 1
23 11 1
23 12 1
23 14 1
23 15 1
23 20 1
24 2 1
24 4 1
24 6 1
24 8 1
24 11 1
24 12 1
24 16 1
24 17 1
24 18 1
24 21 1
24 23 1
25 3 1
25 4 1
25 6 1
25 7 1
25 8 1
25 10 1
25 11 1
25 18 1
25 20 1
25 21 1
26 0 1
26 3 1
26 4 1
26 5 1
26 6 1
26 8 1
26 11 1
26 14 1
26 15 1
26 16 1
26 19 1
26 20 1
26 22 1
26 23 1
26 25 1
27 0 1
27 1 1
27 2 1
27 4 1
27 7 1
27 14 1
27 15 1
27 16 1
27 17 1
27 20 1
28 0 1
28 1 1
28 4 1
28 6 1
28 7 1
28 8 1
28 11 1
28 13 1
28 15 1
28 16 1
28 17 1
28 19 1
28 20 1
28 24 1
28 25 1
29 0 1
29 3 1
29 5 1
29 7 1
29 8 1
29 10 1
29 15 1
29 16 1
29 17 1
29 19 1
29 21 1
29 25 1
29 27 1
30 0 1
30 1 1
30 2 1
30 3 1
30 10 1
30 11 1
30 15 1
30 17 1
30 22 1
30 23 1
30 24 1
31 0 1
31 3 1
31 4 1
31 7 1
31 8 1
31 9 1
31 11 1
31 13 1
31 14 1
31 17 1
31 20 1
31 21 1
31 26 1
31 27 1
31 30 1
32 0 1
32 1 1
32 2 1
32 4 1
32 6 1
32 8 1
32 9 1
32 10 1
32 12 1
32 13 1
32 15 1
32 16 1
32 17 1
32 21 1
32 22 1
32 24 1
32 27 1
32 28 1
32 29 1
33 0 1
33 2 1
33 4 1
33 5 1
33 8 1
33 11 1
33 13 1
33 14 1
33 19 1
33 20 1
33 21 1
33 24 1
33 27 1
33 28 1
33 31 1
33 32 1
34 0 1
34 1 1
34 2 1
34 4 1
34 5 1
34 6 1
34 7 1
34 10 1
34 11 1
34 13 1
34 15 1
34 17 1
34 18 1
34 19 1
34 20 1
34 22 1
34 23 1
34 29 1
34 31 1
34 32 1
34 33 1
35 0 1
35 2 1
35 5 1
35 6 1
35 7 1
35 8 1
35 9 1
35 10 1
35 11 1
35 12 1
35 13 1
35 15 1
35 22 1
35 30 1
35 31 1
36 0 1
36 1 1
36 2 1
36 4 1
36 10 1
36 12 1
36 13 1
36 16 1
36 17 1
36 20 1
36 21 1
36 24 1
36 26 1
36 27 1
36 28 1
36 32 1
36 33 1
37 3 1
37 5 1
37 7 1
37 8 1
37 10 1
37 12 1
37 13 1
37 17 1
37 20 1
37 21 1
37 23 1
37 24 1
37 25 1
37 26 1
37 27 1
37 28 1
37 29 1
37 32 1
37 33 1
37 35 1
37 36 1
38 0 1
38 2 1
38 5 1
38 6 1
38 10 1
38 12 1
38 13 1
38 15 1
38 18 1
38 19 1
38 23 1
38 24 1
38 25 1
38 28 1
38 31 1
38 36 1
38 37 1
39 1 1
39 2 1
39 3 1
39 5 1
39 7 1
39 8 1
39 10 1
39 11 1
39 17 1
39 18 1
39 19 1
39 20 1
39 22 1
39 25 1
39 28 1
39 30 1
39 31 1
39 33 1
39 34 1
39 35 1
39 37 1
39 38 1
40 0 1
40 2 1
40 4 1
40 5 1
40 9 1
40 10 1
40 14 1
40 16 1
40 18 1
40 20 1
40 22 1
40 23 1
40 24 1
40 25 1
40 27 1
40 29 1
40 30 1
40 31 1
40 33 1
40 34 1
40 37 1
40 38 1
40 39 1
41 0 1
41 1 1
41 3 1
41 8 1
41 10 1
41 11 1
41 12 1
41 16 1
41 17 1
41 19 1
41 20 1
41 22 1
41 25 1
41 26 1
41 27 1
41 28 1
41 29 1
41 32 1
41 35 1
41 38 1
42 0 1
42 1 1
42 5 1
42 9 1
42 14 1
42 16 1
42 18 1
42 19 1
42 23 1
42 24 1
42 25 1
42 26 1
42 28 1
42 31 1
42 33 1
42 34 1
42 35 1
42 38 1
42 40 1
42 41 1
43 2 1
43 3 1
43 5 1
43 6 1
43 7 1
43 9 1
43 11 1
43 13 1
43 14 1
43 17 1
43 19 1
43 22 1
43 24 1
43 25 1
43 27 1
43 28 1
43 30 1
43 31 1
43 34 1
44 6 1
44 7 1
44 9 1
44 11 1
44 12 1
44 13 1
44 14 1
44 16 1
44 17 1
44 24 1
44 29 1
44 30 1
44 32 1
44 33 1
44 36 1
44 37 1
44 38 1
44 39 1
44 41 1
44 43 1
